Route #1: 5 16 37 
Route #2: 27 30 20 32 
Route #3: 45 7 8 46 17 
Route #4: 42 15 41 26 
Route #5: 18 6 
Route #6: 31 11 10 
Route #7: 2 21 40 50 1 
Route #8: 33 29 9 34 35 
Route #9: 14 44 38 43 13 
Route #10: 36 47 19 49 48 
Route #11: 39 23 22 4 25 
Route #12: 28 12 3 24 
Objective: 113505.7
